\* 1_Bid *\
Maximize
OBJ: - 2.5 X_1 - 15 X_10 - 17.5 X_11 - 15 X_12 - 17.5 X_13 - 20 X_14
 - 22.5 X_15 - 7.5 X_16 - 10 X_17 - 12.5 X_18 - 15 X_19 - 5 X_2 - 12.5 X_20
 - 15 X_21 - 17.5 X_22 - 20 X_23 - 17.5 X_24 - 20 X_25 - 22.5 X_26 - 25 X_27
 - 22.5 X_28 - 25 X_29 - 7.5 X_3 - 27.5 X_30 - 30 X_31 - 15 X_32 - 17.5 X_33
 - 20 X_34 - 22.5 X_35 - 20 X_36 - 22.5 X_37 - 25 X_38 - 27.5 X_39 - 5 X_4
 - 25 X_40 - 27.5 X_41 - 30 X_42 - 32.5 X_43 - 30 X_44 - 32.5 X_45 - 35 X_46
 - 37.5 X_47 - 22.5 X_48 - 25 X_49 - 7.5 X_5 - 27.5 X_50 - 30 X_51 - 27.5 X_52
 - 30 X_53 - 32.5 X_54 - 35 X_55 - 32.5 X_56 - 35 X_57 - 37.5 X_58 - 40 X_59
 - 10 X_6 - 37.5 X_60 - 40 X_61 - 42.5 X_62 - 45 X_63 - 12.5 X_7 - 10 X_8
 - 12.5 X_9
Subject To
_C1: X_0 + X_1 + X_10 + X_11 + X_12 + X_13 + X_14 + X_15 + X_16 + X_17 + X_18
 + X_19 + X_2 + X_20 + X_21 + X_22 + X_23 + X_24 + X_25 + X_26 + X_27 + X_28
 + X_29 + X_3 + X_30 + X_31 + X_32 + X_33 + X_34 + X_35 + X_36 + X_37 + X_38
 + X_39 + X_4 + X_40 + X_41 + X_42 + X_43 + X_44 + X_45 + X_46 + X_47 + X_48
 + X_49 + X_5 + X_50 + X_51 + X_52 + X_53 + X_54 + X_55 + X_56 + X_57 + X_58
 + X_59 + X_6 + X_60 + X_61 + X_62 + X_63 + X_7 + X_8 + X_9 = 1
Binaries
X_0
X_1
X_10
X_11
X_12
X_13
X_14
X_15
X_16
X_17
X_18
X_19
X_2
X_20
X_21
X_22
X_23
X_24
X_25
X_26
X_27
X_28
X_29
X_3
X_30
X_31
X_32
X_33
X_34
X_35
X_36
X_37
X_38
X_39
X_4
X_40
X_41
X_42
X_43
X_44
X_45
X_46
X_47
X_48
X_49
X_5
X_50
X_51
X_52
X_53
X_54
X_55
X_56
X_57
X_58
X_59
X_6
X_60
X_61
X_62
X_63
X_7
X_8
X_9
End
